Version identifier: 12.10.0.0 | 2019-11-26 | 843d4de
CPXPARAM_WorkMem                                 28672
Tried aggregator 2 times.
Aggregator did 60 substitutions.
Reduced MIP has 203 rows, 240 columns, and 906 nonzeros.
Reduced MIP has 240 binaries, 0 generals, 0 SOSs, and 0 indicators.
Presolve time = 0,00 sec. (0,88 ticks)
Found incumbent of value 180,000000 after 0,00 sec. (1,45 ticks)
Probing time = 0,00 sec. (0,31 ticks)
Tried aggregator 1 time.
Detecting symmetries...
MIP Presolve eliminated 48 rows and 0 columns.
MIP Presolve added 96 rows and 0 columns.
Reduced MIP has 251 rows, 240 columns, and 954 nonzeros.
Reduced MIP has 240 binaries, 0 generals, 0 SOSs, and 0 indicators.
Presolve time = 0,00 sec. (1,18 ticks)
Probing time = 0,00 sec. (0,30 ticks)
Clique table members: 626.
MIP emphasis: balance optimality and feasibility.
MIP search method: dynamic search.
Parallel mode: deterministic, using up to 16 threads.
Root relaxation solution time = 0,00 sec. (1,40 ticks)

        Nodes                                         Cuts/
   Node  Left     Objective  IInf  Best Integer    Best Bound    ItCnt     Gap

*     0+    0                          180,0000        0,0000           100,00%
*     0+    0                          131,0000        0,0000           100,00%
*     0+    0                          126,0000        0,0000           100,00%
      0     0       60,0000   219      126,0000       60,0000      134   52,38%
      0     0       60,8231   219      126,0000     Cuts: 162      228   51,73%
      0     0       62,1872   219      126,0000     Cuts: 158      281   50,65%
      0     0       62,4104   219      126,0000      Cuts: 87      307   50,47%
      0     0       62,5484   219      126,0000      Cuts: 96      345   50,36%
      0     0       62,8335   219      126,0000     Cuts: 128      379   50,13%
      0     0       67,3186   219      126,0000     Cuts: 162      583   46,57%
      0     0       67,4027   219      126,0000      Cuts: 14      616   46,51%
      0     0       67,5420   219      126,0000      Cuts: 23      663   46,40%
*     0+    0                          124,0000       67,5420            45,53%
*     0+    0                          117,0000       67,5420            42,27%
      0     0       67,6799   219      117,0000      Cuts: 11      722   42,15%
      0     0       67,8189   219      117,0000      Cuts: 11      758   42,04%
      0     0       67,9378   219      117,0000       Cuts: 8      802   41,93%
      0     0       68,0077   219      117,0000  ZeroHalf: 12      820   41,87%
      0     0       68,0235   219      117,0000       Cuts: 9      846   41,86%
      0     0       68,0864   219      117,0000       Cuts: 9      881   41,81%
      0     0       68,1560   219      117,0000   ZeroHalf: 7      916   41,75%
      0     0       68,2924   219      117,0000   ZeroHalf: 5      987   41,63%
      0     0       68,3359   219      117,0000      Cuts: 28     1029   41,59%
      0     0       68,3924   219      117,0000      Cuts: 16     1074   41,54%
      0     0       68,4619   219      117,0000  ZeroHalf: 16     1115   41,49%
      0     0       68,4999   219      117,0000  ZeroHalf: 15     1156   41,45%
      0     0       68,5161   219      117,0000      Cuts: 11     1235   41,02%
      0     0       69,3559   219      117,0000      Cuts: 46     1373   40,72%
      0     0       69,6561   219      117,0000      Cuts: 15     1458   40,46%
      0     0       69,7722   219      117,0000      Cuts: 86     1510   40,37%
      0     0       69,8526   219      117,0000      Cuts: 15     1573   40,30%
      0     0       69,9205   219      117,0000   ZeroHalf: 9     1623   40,24%
      0     0       69,9588   219      117,0000      Cuts: 14     1673   40,21%
      0     0       69,9858   219      117,0000      Cuts: 79     1700   40,18%
      0     0       69,9960   219      117,0000   ZeroHalf: 4     1722   40,17%
      0     0       70,1265   219      117,0000      Cuts: 23     1813   40,06%
      0     0       70,2394   219      117,0000      Cuts: 82     1914   39,97%
      0     0       70,2965   219      117,0000      Cuts: 23     2003   39,92%
      0     0       70,3507   219      117,0000      Cuts: 73     2060   39,87%
      0     0       70,3709   219      117,0000   ZeroHalf: 8     2091   39,85%
*     0+    0                          114,0000       70,3709            38,27%
      0     2       70,3709   230      114,0000       70,3709     2091   38,27%
Elapsed time = 0,77 sec. (487,18 ticks, tree = 0,02 MB, solutions = 6)
   3457  1954      107,6948    52      114,0000       97,0802    84867   14,84%

Performing restart 1

Repeating presolve.
Tried aggregator 2 times.
MIP Presolve eliminated 15 rows and 10 columns.
MIP Presolve added 8 rows and 0 columns.
MIP Presolve modified 12 coefficients.
Aggregator did 2 substitutions.
Reduced MIP has 242 rows, 228 columns, and 897 nonzeros.
Reduced MIP has 228 binaries, 0 generals, 0 SOSs, and 0 indicators.
Presolve time = 0,00 sec. (1,11 ticks)
Tried aggregator 1 time.
Reduced MIP has 242 rows, 228 columns, and 897 nonzeros.
Reduced MIP has 228 binaries, 0 generals, 0 SOSs, and 0 indicators.
Presolve time = 0,00 sec. (0,73 ticks)
Represolve time = 0,02 sec. (10,53 ticks)
   4527     0       70,6832   228      114,0000      Cuts: 13   127317   13,22%
   4527     0       71,3608   228      114,0000      Cuts: 14   127492   13,22%
   4527     0       71,7223   228      114,0000      Cuts: 29   127614   13,22%
   4527     0       72,0023   228      114,0000      Cuts: 11   127726   13,22%
   4527     2       72,0023   228      114,0000       98,9253   127726   13,22%
   5050   118      111,2898   139      114,0000       98,9253   132424   13,22%
   7131  1370      100,9088   182      114,0000       98,9253   179143   13,22%
   9884  3342      102,6970   167      114,0000       98,9253   235457   13,22%

Performing restart 2

Repeating presolve.
Tried aggregator 1 time.
Reduced MIP has 242 rows, 228 columns, and 897 nonzeros.
Reduced MIP has 228 binaries, 0 generals, 0 SOSs, and 0 indicators.
Presolve time = 0,00 sec. (0,53 ticks)
Tried aggregator 1 time.
Reduced MIP has 242 rows, 228 columns, and 897 nonzeros.
Reduced MIP has 228 binaries, 0 generals, 0 SOSs, and 0 indicators.
Presolve time = 0,00 sec. (0,73 ticks)
Represolve time = 0,02 sec. (17,46 ticks)
  10453     0       72,6342   228      114,0000      Cuts: 18   269073   13,22%
  10453     0       72,9474   228      114,0000      Cuts: 20   269226   13,22%
  10453     0       73,1065   228      114,0000       Cuts: 7   269309   13,22%
  10453     0       73,5693   228      114,0000      Cuts: 24   269496   13,22%
  10453     0       73,8197   228      114,0000      Cuts: 29   269648   13,22%
  10453     0       74,0521   228      114,0000      Cuts: 67   269789   13,22%
  10453     2       74,0521   228      114,0000       98,9253   269789   13,22%
  12754  1137      109,4063   117      114,0000       98,9253   326105   13,22%
  16312  2457        cutoff            114,0000      103,5106   433062    9,20%
  20625  2371        cutoff            114,0000      108,4583   553954    4,86%

Clique cuts applied:  36
Cover cuts applied:  264
Flow cuts applied:  1
Mixed integer rounding cuts applied:  113
Zero-half cuts applied:  15
Lift and project cuts applied:  18
Gomory fractional cuts applied:  42

Root node processing (before b&c):
  Real time             =    0,75 sec. (486,39 ticks)
Parallel b&c, 16 threads:
  Real time             =    3,62 sec. (2933,40 ticks)
  Sync time (average)   =    0,87 sec.
  Wait time (average)   =    0,02 sec.
                          ------------
Total (root+branch&cut) =    4,36 sec. (3419,79 ticks)
